p cnf 336 2922
95 156 181 0
177 298 0
91 172 175 187 192 197 0
125 146 153 165 173 208 0
121 135 142 145 302 0
132 133 202 305 0
113 206 216 223 309 0
214 219 221 231 0
138 140 225 226 227 0
130 210 230 234 0
160 170 236 238 0
184 241 243 245 0
190 200 204 218 247 276 0
185 195 320 323 329 0
126 127 150 151 163 0
119 122 174 0
116 117 148 201 205 0
109 111 114 0
106 108 136 0
103 104 105 128 229 0
99 101 102 158 167 235 0
96 97 154 157 178 242 0
92 94 176 189 246 0
90 123 162 212 0
87 88 118 120 131 134 0
85 115 147 207 0
83 84 110 112 0
75 77 79 80 82 0
217 248 249 250 251 0
215 222 253 255 256 0
257 258 259 260 0
139 228 261 262 263 0
211 237 264 265 267 0
161 171 239 244 268 270 271 0
152 273 274 275 0
149 278 279 281 0
282 284 286 0
287 288 289 290 0
291 292 0
107 293 294 0
98 100 168 295 0
93 179 182 296 0
188 194 199 213 0
155 166 180 297 0
89 143 299 0
86 186 191 300 0
124 164 209 301 0
81 141 144 303 304 0
76 78 306 308 0
224 252 254 310 311 0
220 232 266 312 0
269 313 314 316 0
272 317 0
233 318 0
183 240 319 0
321 322 324 0
280 283 325 0
-159 -172 0
-159 -305 0
-159 -309 0
-159 -331 0
-172 -305 0
-172 -309 0
-172 -331 0
-305 -309 0
-305 -331 0
-309 -331 0
-225 -307 0
-241 -307 0
-276 -307 0
-307 -320 0
-225 -241 0
-225 -276 0
-225 -320 0
-241 -276 0
-241 -320 0
-276 -320 0
-127 -201 0
-127 -326 0
-127 -327 0
-108 -127 0
-201 -326 0
-201 -327 0
-108 -201 0
-326 -327 0
-108 -326 0
-108 -327 0
-161 -264 0
-264 -328 0
-161 -328 0
-280 -330 0
-285 -330 0
-280 -285 0
-159 -307 0
-127 -159 0
-127 -307 0
-172 -225 0
-172 -201 0
-201 -225 0
-241 -305 0
-305 -326 0
-264 -305 0
-305 -330 0
-241 -326 0
-241 -264 0
-241 -330 0
-264 -326 0
-326 -330 0
-264 -330 0
-276 -309 0
-309 -327 0
-161 -309 0
-280 -309 0
-276 -327 0
-161 -276 0
-276 -280 0
-161 -327 0
-280 -327 0
-161 -280 0
-320 -331 0
-108 -331 0
-328 -331 0
-285 -331 0
-108 -320 0
-320 -328 0
-285 -320 0
-108 -328 0
-108 -285 0
-285 -328 0
-125 -175 0
-145 -175 0
-125 -145 0
-222 -257 0
-139 -222 0
-139 -257 0
-306 -310 0
-306 -332 0
-306 -313 0
-310 -332 0
-310 -313 0
-313 -332 0
-240 -277 0
-240 -321 0
-240 -333 0
-277 -321 0
-277 -333 0
-321 -333 0
-175 -222 0
-175 -306 0
-175 -240 0
-222 -306 0
-222 -240 0
-240 -306 0
-125 -257 0
-125 -310 0
-125 -277 0
-257 -310 0
-257 -277 0
-277 -310 0
-139 -145 0
-145 -332 0
-145 -321 0
-139 -332 0
-139 -321 0
-321 -332 0
-313 -333 0
-165 -187 0
-187 -302 0
-165 -302 0
-97 -102 0
-94 -102 0
-102 -334 0
-90 -102 0
-102 -134 0
-94 -97 0
-97 -334 0
-90 -97 0
-97 -134 0
-94 -334 0
-90 -94 0
-94 -134 0
-90 -334 0
-134 -334 0
-90 -134 0
-82 -248 0
-82 -215 0
-82 -258 0
-82 -228 0
-82 -171 0
-215 -248 0
-248 -258 0
-228 -248 0
-171 -248 0
-215 -258 0
-215 -228 0
-171 -215 0
-228 -258 0
-171 -258 0
-171 -228 0
-152 -196 0
-196 -335 0
-196 -336 0
-149 -196 0
-196 -287 0
-152 -335 0
-152 -336 0
-149 -152 0
-152 -287 0
-335 -336 0
-149 -335 0
-287 -335 0
-149 -336 0
-287 -336 0
-149 -287 0
-129 -137 0
-100 -137 0
-137 -296 0
-74 -137 0
-100 -129 0
-129 -296 0
-74 -129 0
-100 -296 0
-74 -100 0
-74 -296 0
-124 -144 0
-78 -124 0
-124 -311 0
-73 -124 0
-78 -144 0
-144 -311 0
-73 -144 0
-78 -311 0
-73 -78 0
-73 -311 0
-82 -102 0
-102 -196 0
-102 -137 0
-102 -124 0
-82 -196 0
-82 -137 0
-82 -124 0
-137 -196 0
-124 -196 0
-124 -137 0
-97 -248 0
-97 -152 0
-97 -129 0
-97 -144 0
-152 -248 0
-129 -248 0
-144 -248 0
-129 -152 0
-144 -152 0
-129 -144 0
-94 -187 0
-187 -215 0
-187 -335 0
-100 -187 0
-78 -187 0
-94 -215 0
-94 -335 0
-94 -100 0
-78 -94 0
-215 -335 0
-100 -215 0
-78 -215 0
-100 -335 0
-78 -335 0
-78 -100 0
-165 -334 0
-165 -258 0
-165 -336 0
-165 -296 0
-165 -311 0
-258 -334 0
-334 -336 0
-296 -334 0
-311 -334 0
-258 -336 0
-258 -296 0
-258 -311 0
-296 -336 0
-311 -336 0
-296 -311 0
-90 -302 0
-228 -302 0
-149 -302 0
-74 -302 0
-73 -302 0
-90 -228 0
-90 -149 0
-74 -90 0
-73 -90 0
-149 -228 0
-74 -228 0
-73 -228 0
-74 -149 0
-73 -149 0
-73 -74 0
-134 -171 0
-134 -287 0
-171 -287 0
-156 -193 0
-177 -193 0
-192 -193 0
-193 -208 0
-142 -193 0
-132 -193 0
-193 -206 0
-72 -193 0
-156 -177 0
-156 -192 0
-156 -208 0
-142 -156 0
-132 -156 0
-156 -206 0
-72 -156 0
-177 -192 0
-177 -208 0
-142 -177 0
-132 -177 0
-177 -206 0
-72 -177 0
-192 -208 0
-142 -192 0
-132 -192 0
-192 -206 0
-72 -192 0
-142 -208 0
-132 -208 0
-206 -208 0
-72 -208 0
-132 -142 0
-142 -206 0
-72 -142 0
-132 -206 0
-72 -132 0
-72 -206 0
-71 -231 0
-69 -71 0
-71 -226 0
-71 -230 0
-71 -236 0
-71 -243 0
-71 -190 0
-71 -185 0
-69 -231 0
-226 -231 0
-230 -231 0
-231 -236 0
-231 -243 0
-190 -231 0
-185 -231 0
-69 -226 0
-69 -230 0
-69 -236 0
-69 -243 0
-69 -190 0
-69 -185 0
-226 -230 0
-226 -236 0
-226 -243 0
-190 -226 0
-185 -226 0
-230 -236 0
-230 -243 0
-190 -230 0
-185 -230 0
-236 -243 0
-190 -236 0
-185 -236 0
-190 -243 0
-185 -243 0
-185 -190 0
-68 -163 0
-122 -163 0
-117 -163 0
-114 -163 0
-67 -163 0
-66 -163 0
-65 -163 0
-106 -163 0
-68 -122 0
-68 -117 0
-68 -114 0
-67 -68 0
-66 -68 0
-65 -68 0
-68 -106 0
-117 -122 0
-114 -122 0
-67 -122 0
-66 -122 0
-65 -122 0
-106 -122 0
-114 -117 0
-67 -117 0
-66 -117 0
-65 -117 0
-106 -117 0
-67 -114 0
-66 -114 0
-65 -114 0
-106 -114 0
-66 -67 0
-65 -67 0
-67 -106 0
-65 -66 0
-66 -106 0
-65 -106 0
-101 -105 0
-96 -105 0
-92 -105 0
-64 -105 0
-105 -212 0
-63 -105 0
-88 -105 0
-85 -105 0
-96 -101 0
-92 -101 0
-64 -101 0
-101 -212 0
-63 -101 0
-88 -101 0
-85 -101 0
-92 -96 0
-64 -96 0
-96 -212 0
-63 -96 0
-88 -96 0
-85 -96 0
-64 -92 0
-92 -212 0
-63 -92 0
-88 -92 0
-85 -92 0
-64 -212 0
-63 -64 0
-64 -88 0
-64 -85 0
-63 -212 0
-88 -212 0
-85 -212 0
-63 -88 0
-63 -85 0
-85 -88 0
-80 -84 0
-84 -249 0
-84 -253 0
-84 -259 0
-84 -261 0
-84 -265 0
-84 -268 0
-62 -84 0
-80 -249 0
-80 -253 0
-80 -259 0
-80 -261 0
-80 -265 0
-80 -268 0
-62 -80 0
-249 -253 0
-249 -259 0
-249 -261 0
-249 -265 0
-249 -268 0
-62 -249 0
-253 -259 0
-253 -261 0
-253 -265 0
-253 -268 0
-62 -253 0
-259 -261 0
-259 -265 0
-259 -268 0
-62 -259 0
-261 -265 0
-261 -268 0
-62 -261 0
-265 -268 0
-62 -265 0
-62 -268 0
-60 -61 0
-61 -273 0
-59 -61 0
-58 -61 0
-61 -278 0
-61 -282 0
-61 -288 0
-61 -291 0
-60 -273 0
-59 -60 0
-58 -60 0
-60 -278 0
-60 -282 0
-60 -288 0
-60 -291 0
-59 -273 0
-58 -273 0
-273 -278 0
-273 -282 0
-273 -288 0
-273 -291 0
-58 -59 0
-59 -278 0
-59 -282 0
-59 -288 0
-59 -291 0
-58 -278 0
-58 -282 0
-58 -288 0
-58 -291 0
-278 -282 0
-278 -288 0
-278 -291 0
-282 -288 0
-282 -291 0
-288 -291 0
-57 -293 0
-56 -293 0
-168 -293 0
-179 -293 0
-55 -293 0
-188 -293 0
-166 -293 0
-143 -293 0
-56 -57 0
-57 -168 0
-57 -179 0
-55 -57 0
-57 -188 0
-57 -166 0
-57 -143 0
-56 -168 0
-56 -179 0
-55 -56 0
-56 -188 0
-56 -166 0
-56 -143 0
-168 -179 0
-55 -168 0
-168 -188 0
-166 -168 0
-143 -168 0
-55 -179 0
-179 -188 0
-166 -179 0
-143 -179 0
-55 -188 0
-55 -166 0
-55 -143 0
-166 -188 0
-143 -188 0
-143 -166 0
-164 -186 0
-186 -303 0
-76 -186 0
-186 -252 0
-54 -186 0
-53 -186 0
-186 -312 0
-186 -314 0
-164 -303 0
-76 -164 0
-164 -252 0
-54 -164 0
-53 -164 0
-164 -312 0
-164 -314 0
-76 -303 0
-252 -303 0
-54 -303 0
-53 -303 0
-303 -312 0
-303 -314 0
-76 -252 0
-54 -76 0
-53 -76 0
-76 -312 0
-76 -314 0
-54 -252 0
-53 -252 0
-252 -312 0
-252 -314 0
-53 -54 0
-54 -312 0
-54 -314 0
-53 -312 0
-53 -314 0
-312 -314 0
-272 -318 0
-52 -272 0
-272 -319 0
-51 -272 0
-272 -322 0
-50 -272 0
-272 -325 0
-49 -272 0
-52 -318 0
-318 -319 0
-51 -318 0
-318 -322 0
-50 -318 0
-318 -325 0
-49 -318 0
-52 -319 0
-51 -52 0
-52 -322 0
-50 -52 0
-52 -325 0
-49 -52 0
-51 -319 0
-319 -322 0
-50 -319 0
-319 -325 0
-49 -319 0
-51 -322 0
-50 -51 0
-51 -325 0
-49 -51 0
-50 -322 0
-322 -325 0
-49 -322 0
-50 -325 0
-49 -50 0
-49 -325 0
-71 -193 0
-163 -193 0
-105 -193 0
-84 -193 0
-61 -193 0
-193 -293 0
-186 -193 0
-193 -272 0
-71 -163 0
-71 -105 0
-71 -84 0
-61 -71 0
-71 -293 0
-71 -186 0
-71 -272 0
-105 -163 0
-84 -163 0
-61 -163 0
-163 -293 0
-163 -186 0
-163 -272 0
-84 -105 0
-61 -105 0
-105 -293 0
-105 -186 0
-105 -272 0
-61 -84 0
-84 -293 0
-84 -186 0
-84 -272 0
-61 -293 0
-61 -186 0
-61 -272 0
-186 -293 0
-272 -293 0
-186 -272 0
-156 -231 0
-68 -156 0
-101 -156 0
-80 -156 0
-60 -156 0
-57 -156 0
-156 -164 0
-156 -318 0
-68 -231 0
-101 -231 0
-80 -231 0
-60 -231 0
-57 -231 0
-164 -231 0
-231 -318 0
-68 -101 0
-68 -80 0
-60 -68 0
-57 -68 0
-68 -164 0
-68 -318 0
-80 -101 0
-60 -101 0
-57 -101 0
-101 -164 0
-101 -318 0
-60 -80 0
-57 -80 0
-80 -164 0
-80 -318 0
-57 -60 0
-60 -164 0
-60 -318 0
-57 -164 0
-57 -318 0
-164 -318 0
-69 -177 0
-122 -177 0
-96 -177 0
-177 -249 0
-177 -273 0
-56 -177 0
-177 -303 0
-52 -177 0
-69 -122 0
-69 -96 0
-69 -249 0
-69 -273 0
-56 -69 0
-69 -303 0
-52 -69 0
-96 -122 0
-122 -249 0
-122 -273 0
-56 -122 0
-122 -303 0
-52 -122 0
-96 -249 0
-96 -273 0
-56 -96 0
-96 -303 0
-52 -96 0
-249 -273 0
-56 -249 0
-249 -303 0
-52 -249 0
-56 -273 0
-273 -303 0
-52 -273 0
-56 -303 0
-52 -56 0
-52 -303 0
-192 -226 0
-117 -192 0
-92 -192 0
-192 -253 0
-59 -192 0
-168 -192 0
-76 -192 0
-192 -319 0
-117 -226 0
-92 -226 0
-226 -253 0
-59 -226 0
-168 -226 0
-76 -226 0
-226 -319 0
-92 -117 0
-117 -253 0
-59 -117 0
-117 -168 0
-76 -117 0
-117 -319 0
-92 -253 0
-59 -92 0
-92 -168 0
-76 -92 0
-92 -319 0
-59 -253 0
-168 -253 0
-76 -253 0
-253 -319 0
-59 -168 0
-59 -76 0
-59 -319 0
-76 -168 0
-168 -319 0
-76 -319 0
-208 -230 0
-114 -208 0
-64 -208 0
-208 -259 0
-58 -208 0
-179 -208 0
-208 -252 0
-51 -208 0
-114 -230 0
-64 -230 0
-230 -259 0
-58 -230 0
-179 -230 0
-230 -252 0
-51 -230 0
-64 -114 0
-114 -259 0
-58 -114 0
-114 -179 0
-114 -252 0
-51 -114 0
-64 -259 0
-58 -64 0
-64 -179 0
-64 -252 0
-51 -64 0
-58 -259 0
-179 -259 0
-252 -259 0
-51 -259 0
-58 -179 0
-58 -252 0
-51 -58 0
-179 -252 0
-51 -179 0
-51 -252 0
-142 -236 0
-67 -142 0
-142 -212 0
-142 -261 0
-142 -278 0
-55 -142 0
-54 -142 0
-142 -322 0
-67 -236 0
-212 -236 0
-236 -261 0
-236 -278 0
-55 -236 0
-54 -236 0
-236 -322 0
-67 -212 0
-67 -261 0
-67 -278 0
-55 -67 0
-54 -67 0
-67 -322 0
-212 -261 0
-212 -278 0
-55 -212 0
-54 -212 0
-212 -322 0
-261 -278 0
-55 -261 0
-54 -261 0
-261 -322 0
-55 -278 0
-54 -278 0
-278 -322 0
-54 -55 0
-55 -322 0
-54 -322 0
-132 -243 0
-66 -132 0
-63 -132 0
-132 -265 0
-132 -282 0
-132 -188 0
-53 -132 0
-50 -132 0
-66 -243 0
-63 -243 0
-243 -265 0
-243 -282 0
-188 -243 0
-53 -243 0
-50 -243 0
-63 -66 0
-66 -265 0
-66 -282 0
-66 -188 0
-53 -66 0
-50 -66 0
-63 -265 0
-63 -282 0
-63 -188 0
-53 -63 0
-50 -63 0
-265 -282 0
-188 -265 0
-53 -265 0
-50 -265 0
-188 -282 0
-53 -282 0
-50 -282 0
-53 -188 0
-50 -188 0
-50 -53 0
-190 -206 0
-65 -206 0
-88 -206 0
-206 -268 0
-206 -288 0
-166 -206 0
-206 -312 0
-206 -325 0
-65 -190 0
-88 -190 0
-190 -268 0
-190 -288 0
-166 -190 0
-190 -312 0
-190 -325 0
-65 -88 0
-65 -268 0
-65 -288 0
-65 -166 0
-65 -312 0
-65 -325 0
-88 -268 0
-88 -288 0
-88 -166 0
-88 -312 0
-88 -325 0
-268 -288 0
-166 -268 0
-268 -312 0
-268 -325 0
-166 -288 0
-288 -312 0
-288 -325 0
-166 -312 0
-166 -325 0
-312 -325 0
-72 -185 0
-72 -106 0
-72 -85 0
-62 -72 0
-72 -291 0
-72 -143 0
-72 -314 0
-49 -72 0
-106 -185 0
-85 -185 0
-62 -185 0
-185 -291 0
-143 -185 0
-185 -314 0
-49 -185 0
-85 -106 0
-62 -106 0
-106 -291 0
-106 -143 0
-106 -314 0
-49 -106 0
-62 -85 0
-85 -291 0
-85 -143 0
-85 -314 0
-49 -85 0
-62 -291 0
-62 -143 0
-62 -314 0
-49 -62 0
-143 -291 0
-291 -314 0
-49 -291 0
-143 -314 0
-49 -143 0
-49 -314 0
-48 -219 0
-47 -48 0
-48 -140 0
-48 -160 0
-47 -219 0
-140 -219 0
-160 -219 0
-47 -140 0
-47 -160 0
-140 -160 0
-46 -150 0
-150 -174 0
-150 -205 0
-45 -150 0
-46 -174 0
-46 -205 0
-45 -46 0
-174 -205 0
-45 -174 0
-45 -205 0
-229 -235 0
-229 -242 0
-189 -229 0
-162 -229 0
-44 -229 0
-120 -229 0
-235 -242 0
-189 -235 0
-162 -235 0
-44 -235 0
-120 -235 0
-189 -242 0
-162 -242 0
-44 -242 0
-120 -242 0
-162 -189 0
-44 -189 0
-120 -189 0
-44 -162 0
-120 -162 0
-44 -120 0
-79 -112 0
-112 -250 0
-112 -255 0
-112 -262 0
-112 -211 0
-112 -239 0
-79 -250 0
-79 -255 0
-79 -262 0
-79 -211 0
-79 -239 0
-250 -255 0
-250 -262 0
-211 -250 0
-239 -250 0
-255 -262 0
-211 -255 0
-239 -255 0
-211 -262 0
-239 -262 0
-211 -239 0
-42 -43 0
-43 -274 0
-41 -43 0
-43 -279 0
-43 -284 0
-43 -289 0
-42 -274 0
-41 -42 0
-42 -279 0
-42 -284 0
-42 -289 0
-41 -274 0
-274 -279 0
-274 -284 0
-274 -289 0
-41 -279 0
-41 -284 0
-41 -289 0
-279 -284 0
-279 -289 0
-284 -289 0
-40 -294 0
-39 -294 0
-194 -294 0
-155 -294 0
-39 -40 0
-40 -194 0
-40 -155 0
-39 -194 0
-39 -155 0
-155 -194 0
-191 -209 0
-141 -191 0
-70 -191 0
-191 -232 0
-141 -209 0
-70 -209 0
-209 -232 0
-70 -141 0
-141 -232 0
-70 -232 0
-48 -150 0
-48 -229 0
-48 -112 0
-43 -48 0
-48 -294 0
-48 -191 0
-150 -229 0
-112 -150 0
-43 -150 0
-150 -294 0
-150 -191 0
-112 -229 0
-43 -229 0
-229 -294 0
-191 -229 0
-43 -112 0
-112 -294 0
-112 -191 0
-43 -294 0
-43 -191 0
-191 -294 0
-46 -219 0
-219 -235 0
-79 -219 0
-42 -219 0
-40 -219 0
-209 -219 0
-46 -235 0
-46 -79 0
-42 -46 0
-40 -46 0
-46 -209 0
-79 -235 0
-42 -235 0
-40 -235 0
-209 -235 0
-42 -79 0
-40 -79 0
-79 -209 0
-40 -42 0
-42 -209 0
-40 -209 0
-47 -174 0
-47 -242 0
-47 -250 0
-47 -274 0
-39 -47 0
-47 -141 0
-174 -242 0
-174 -250 0
-174 -274 0
-39 -174 0
-141 -174 0
-242 -250 0
-242 -274 0
-39 -242 0
-141 -242 0
-250 -274 0
-39 -250 0
-141 -250 0
-39 -274 0
-141 -274 0
-39 -141 0
-140 -205 0
-140 -189 0
-140 -255 0
-41 -140 0
-189 -205 0
-205 -255 0
-41 -205 0
-189 -255 0
-41 -189 0
-41 -255 0
-45 -160 0
-160 -162 0
-160 -262 0
-160 -279 0
-45 -162 0
-45 -262 0
-45 -279 0
-162 -262 0
-162 -279 0
-262 -279 0
-44 -211 0
-44 -284 0
-44 -194 0
-44 -70 0
-211 -284 0
-194 -211 0
-70 -211 0
-194 -284 0
-70 -284 0
-70 -194 0
-120 -239 0
-120 -289 0
-120 -155 0
-120 -232 0
-239 -289 0
-155 -239 0
-232 -239 0
-155 -289 0
-232 -289 0
-155 -232 0
-181 -198 0
-198 -298 0
-197 -198 0
-153 -198 0
-198 -223 0
-181 -298 0
-181 -197 0
-153 -181 0
-181 -223 0
-197 -298 0
-153 -298 0
-223 -298 0
-153 -197 0
-197 -223 0
-153 -223 0
-38 -221 0
-38 -315 0
-38 -138 0
-38 -130 0
-38 -247 0
-221 -315 0
-138 -221 0
-130 -221 0
-221 -247 0
-138 -315 0
-130 -315 0
-247 -315 0
-130 -138 0
-138 -247 0
-130 -247 0
-36 -126 0
-119 -126 0
-116 -126 0
-111 -126 0
-35 -126 0
-36 -119 0
-36 -116 0
-36 -111 0
-35 -36 0
-116 -119 0
-111 -119 0
-35 -119 0
-111 -116 0
-35 -116 0
-35 -111 0
-104 -158 0
-104 -154 0
-104 -176 0
-34 -104 0
-154 -158 0
-158 -176 0
-34 -158 0
-154 -176 0
-34 -154 0
-34 -176 0
-32 -33 0
-33 -275 0
-31 -33 0
-30 -33 0
-32 -275 0
-31 -32 0
-30 -32 0
-31 -275 0
-30 -275 0
-30 -31 0
-300 -301 0
-300 -304 0
-301 -304 0
-38 -198 0
-126 -198 0
-104 -198 0
-33 -198 0
-198 -300 0
-38 -126 0
-38 -104 0
-33 -38 0
-38 -300 0
-104 -126 0
-33 -126 0
-126 -300 0
-33 -104 0
-104 -300 0
-33 -300 0
-181 -221 0
-36 -181 0
-158 -181 0
-32 -181 0
-181 -301 0
-36 -221 0
-158 -221 0
-32 -221 0
-221 -301 0
-36 -158 0
-32 -36 0
-36 -301 0
-32 -158 0
-158 -301 0
-32 -301 0
-298 -315 0
-119 -298 0
-154 -298 0
-275 -298 0
-298 -304 0
-119 -315 0
-154 -315 0
-275 -315 0
-304 -315 0
-119 -154 0
-119 -275 0
-119 -304 0
-154 -275 0
-154 -304 0
-275 -304 0
-138 -197 0
-116 -197 0
-176 -197 0
-31 -197 0
-116 -138 0
-138 -176 0
-31 -138 0
-116 -176 0
-31 -116 0
-31 -176 0
-130 -153 0
-111 -153 0
-34 -153 0
-30 -153 0
-111 -130 0
-34 -130 0
-30 -130 0
-34 -111 0
-30 -111 0
-30 -34 0
-223 -247 0
-35 -223 0
-35 -247 0
-29 -95 0
-29 -91 0
-29 -146 0
-29 -135 0
-29 -133 0
-29 -216 0
-28 -29 0
-91 -95 0
-95 -146 0
-95 -135 0
-95 -133 0
-95 -216 0
-28 -95 0
-91 -146 0
-91 -135 0
-91 -133 0
-91 -216 0
-28 -91 0
-135 -146 0
-133 -146 0
-146 -216 0
-28 -146 0
-133 -135 0
-135 -216 0
-28 -135 0
-133 -216 0
-28 -133 0
-28 -216 0
-27 -214 0
-27 -227 0
-27 -234 0
-27 -170 0
-27 -184 0
-27 -200 0
-27 -195 0
-214 -227 0
-214 -234 0
-170 -214 0
-184 -214 0
-200 -214 0
-195 -214 0
-227 -234 0
-170 -227 0
-184 -227 0
-200 -227 0
-195 -227 0
-170 -234 0
-184 -234 0
-200 -234 0
-195 -234 0
-170 -184 0
-170 -200 0
-170 -195 0
-184 -200 0
-184 -195 0
-195 -200 0
-26 -151 0
-148 -151 0
-109 -151 0
-25 -151 0
-24 -151 0
-23 -151 0
-136 -151 0
-26 -148 0
-26 -109 0
-25 -26 0
-24 -26 0
-23 -26 0
-26 -136 0
-109 -148 0
-25 -148 0
-24 -148 0
-23 -148 0
-136 -148 0
-25 -109 0
-24 -109 0
-23 -109 0
-109 -136 0
-24 -25 0
-23 -25 0
-25 -136 0
-23 -24 0
-24 -136 0
-23 -136 0
-99 -128 0
-128 -246 0
-22 -128 0
-123 -128 0
-21 -128 0
-118 -128 0
-115 -128 0
-99 -246 0
-22 -99 0
-99 -123 0
-21 -99 0
-99 -118 0
-99 -115 0
-22 -246 0
-123 -246 0
-21 -246 0
-118 -246 0
-115 -246 0
-22 -123 0
-21 -22 0
-22 -118 0
-22 -115 0
-21 -123 0
-118 -123 0
-115 -123 0
-21 -118 0
-21 -115 0
-115 -118 0
-77 -110 0
-110 -256 0
-110 -260 0
-110 -263 0
-110 -267 0
-110 -270 0
-20 -110 0
-77 -256 0
-77 -260 0
-77 -263 0
-77 -267 0
-77 -270 0
-20 -77 0
-256 -260 0
-256 -263 0
-256 -267 0
-256 -270 0
-20 -256 0
-260 -263 0
-260 -267 0
-260 -270 0
-20 -260 0
-263 -267 0
-263 -270 0
-20 -263 0
-267 -270 0
-20 -267 0
-20 -270 0
-18 -19 0
-17 -19 0
-16 -19 0
-19 -281 0
-19 -286 0
-19 -290 0
-19 -292 0
-17 -18 0
-16 -18 0
-18 -281 0
-18 -286 0
-18 -290 0
-18 -292 0
-16 -17 0
-17 -281 0
-17 -286 0
-17 -290 0
-17 -292 0
-16 -281 0
-16 -286 0
-16 -290 0
-16 -292 0
-281 -286 0
-281 -290 0
-281 -292 0
-286 -290 0
-286 -292 0
-290 -292 0
-182 -295 0
-15 -295 0
-199 -295 0
-180 -295 0
-295 -299 0
-15 -182 0
-182 -199 0
-180 -182 0
-182 -299 0
-15 -199 0
-15 -180 0
-15 -299 0
-180 -199 0
-199 -299 0
-180 -299 0
-224 -308 0
-14 -308 0
-37 -308 0
-220 -308 0
-308 -316 0
-14 -224 0
-37 -224 0
-220 -224 0
-224 -316 0
-14 -37 0
-14 -220 0
-14 -316 0
-37 -220 0
-37 -316 0
-220 -316 0
-27 -29 0
-29 -151 0
-29 -128 0
-29 -110 0
-19 -29 0
-27 -151 0
-27 -128 0
-27 -110 0
-19 -27 0
-128 -151 0
-110 -151 0
-19 -151 0
-110 -128 0
-19 -128 0
-19 -110 0
-95 -214 0
-26 -95 0
-95 -99 0
-77 -95 0
-18 -95 0
-26 -214 0
-99 -214 0
-77 -214 0
-18 -214 0
-26 -99 0
-26 -77 0
-18 -26 0
-77 -99 0
-18 -99 0
-18 -77 0
-91 -227 0
-91 -148 0
-91 -246 0
-91 -256 0
-17 -91 0
-91 -295 0
-91 -308 0
-148 -227 0
-227 -246 0
-227 -256 0
-17 -227 0
-227 -295 0
-227 -308 0
-148 -246 0
-148 -256 0
-17 -148 0
-148 -295 0
-148 -308 0
-246 -256 0
-17 -246 0
-246 -295 0
-246 -308 0
-17 -256 0
-256 -295 0
-256 -308 0
-17 -295 0
-17 -308 0
-295 -308 0
-146 -234 0
-109 -146 0
-22 -146 0
-146 -260 0
-16 -146 0
-146 -182 0
-146 -224 0
-109 -234 0
-22 -234 0
-234 -260 0
-16 -234 0
-182 -234 0
-224 -234 0
-22 -109 0
-109 -260 0
-16 -109 0
-109 -182 0
-109 -224 0
-22 -260 0
-16 -22 0
-22 -182 0
-22 -224 0
-16 -260 0
-182 -260 0
-224 -260 0
-16 -182 0
-16 -224 0
-182 -224 0
-135 -170 0
-25 -135 0
-123 -135 0
-135 -263 0
-135 -281 0
-15 -135 0
-14 -135 0
-25 -170 0
-123 -170 0
-170 -263 0
-170 -281 0
-15 -170 0
-14 -170 0
-25 -123 0
-25 -263 0
-25 -281 0
-15 -25 0
-14 -25 0
-123 -263 0
-123 -281 0
-15 -123 0
-14 -123 0
-263 -281 0
-15 -263 0
-14 -263 0
-15 -281 0
-14 -281 0
-14 -15 0
-133 -184 0
-24 -133 0
-21 -133 0
-133 -267 0
-133 -286 0
-133 -199 0
-37 -133 0
-24 -184 0
-21 -184 0
-184 -267 0
-184 -286 0
-184 -199 0
-37 -184 0
-21 -24 0
-24 -267 0
-24 -286 0
-24 -199 0
-24 -37 0
-21 -267 0
-21 -286 0
-21 -199 0
-21 -37 0
-267 -286 0
-199 -267 0
-37 -267 0
-199 -286 0
-37 -286 0
-37 -199 0
-200 -216 0
-23 -216 0
-118 -216 0
-216 -270 0
-216 -290 0
-180 -216 0
-216 -220 0
-23 -200 0
-118 -200 0
-200 -270 0
-200 -290 0
-180 -200 0
-200 -220 0
-23 -118 0
-23 -270 0
-23 -290 0
-23 -180 0
-23 -220 0
-118 -270 0
-118 -290 0
-118 -180 0
-118 -220 0
-270 -290 0
-180 -270 0
-220 -270 0
-180 -290 0
-220 -290 0
-180 -220 0
-28 -195 0
-28 -136 0
-28 -115 0
-20 -28 0
-28 -292 0
-28 -299 0
-28 -316 0
-136 -195 0
-115 -195 0
-20 -195 0
-195 -292 0
-195 -299 0
-195 -316 0
-115 -136 0
-20 -136 0
-136 -292 0
-136 -299 0
-136 -316 0
-20 -115 0
-115 -292 0
-115 -299 0
-115 -316 0
-20 -292 0
-20 -299 0
-20 -316 0
-292 -299 0
-292 -316 0
-299 -316 0
-204 -323 0
-167 -178 0
-87 -167 0
-147 -167 0
-87 -178 0
-147 -178 0
-87 -147 0
-75 -251 0
-75 -271 0
-13 -75 0
-251 -271 0
-13 -251 0
-13 -271 0
-11 -12 0
-12 -98 0
-11 -98 0
-169 -233 0
-183 -233 0
-169 -183 0
-75 -167 0
-12 -167 0
-167 -233 0
-12 -75 0
-75 -233 0
-12 -233 0
-178 -251 0
-11 -178 0
-169 -178 0
-11 -251 0
-169 -251 0
-11 -169 0
-98 -183 0
-87 -204 0
-204 -271 0
-87 -271 0
-147 -323 0
-13 -323 0
-13 -147 0
-121 -173 0
-173 -202 0
-113 -173 0
-10 -173 0
-121 -202 0
-113 -121 0
-10 -121 0
-113 -202 0
-10 -202 0
-10 -113 0
-210 -238 0
-210 -245 0
-210 -218 0
-210 -329 0
-238 -245 0
-218 -238 0
-238 -329 0
-218 -245 0
-245 -329 0
-218 -329 0
-103 -157 0
-9 -103 0
-103 -131 0
-103 -207 0
-9 -157 0
-131 -157 0
-157 -207 0
-9 -131 0
-9 -207 0
-131 -207 0
-83 -217 0
-83 -237 0
-83 -244 0
-8 -83 0
-217 -237 0
-217 -244 0
-8 -217 0
-237 -244 0
-8 -237 0
-8 -244 0
-7 -107 0
-93 -107 0
-6 -107 0
-107 -213 0
-107 -297 0
-89 -107 0
-7 -93 0
-6 -7 0
-7 -213 0
-7 -297 0
-7 -89 0
-6 -93 0
-93 -213 0
-93 -297 0
-89 -93 0
-6 -213 0
-6 -297 0
-6 -89 0
-213 -297 0
-89 -213 0
-89 -297 0
-81 -86 0
-86 -254 0
-5 -86 0
-4 -86 0
-86 -266 0
-86 -269 0
-81 -254 0
-5 -81 0
-4 -81 0
-81 -266 0
-81 -269 0
-5 -254 0
-4 -254 0
-254 -266 0
-254 -269 0
-4 -5 0
-5 -266 0
-5 -269 0
-4 -266 0
-4 -269 0
-266 -269 0
-3 -317 0
-203 -317 0
-317 -324 0
-2 -317 0
-283 -317 0
-1 -317 0
-3 -203 0
-3 -324 0
-2 -3 0
-3 -283 0
-1 -3 0
-203 -324 0
-2 -203 0
-203 -283 0
-1 -203 0
-2 -324 0
-283 -324 0
-1 -324 0
-2 -283 0
-1 -2 0
-1 -283 0
-83 -103 0
-103 -107 0
-86 -103 0
-103 -317 0
-83 -107 0
-83 -86 0
-83 -317 0
-86 -107 0
-107 -317 0
-86 -317 0
-157 -217 0
-7 -157 0
-81 -157 0
-3 -157 0
-7 -217 0
-81 -217 0
-3 -217 0
-7 -81 0
-3 -7 0
-3 -81 0
-173 -210 0
-93 -173 0
-173 -254 0
-173 -203 0
-93 -210 0
-210 -254 0
-203 -210 0
-93 -254 0
-93 -203 0
-203 -254 0
-121 -238 0
-6 -121 0
-5 -121 0
-121 -324 0
-6 -238 0
-5 -238 0
-238 -324 0
-5 -6 0
-6 -324 0
-5 -324 0
-202 -245 0
-9 -202 0
-202 -237 0
-202 -213 0
-4 -202 0
-2 -202 0
-9 -245 0
-237 -245 0
-213 -245 0
-4 -245 0
-2 -245 0
-9 -237 0
-9 -213 0
-4 -9 0
-2 -9 0
-213 -237 0
-4 -237 0
-2 -237 0
-4 -213 0
-2 -213 0
-2 -4 0
-113 -218 0
-113 -131 0
-113 -244 0
-113 -297 0
-113 -266 0
-113 -283 0
-131 -218 0
-218 -244 0
-218 -297 0
-218 -266 0
-218 -283 0
-131 -244 0
-131 -297 0
-131 -266 0
-131 -283 0
-244 -297 0
-244 -266 0
-244 -283 0
-266 -297 0
-283 -297 0
-266 -283 0
-10 -329 0
-10 -207 0
-8 -10 0
-10 -89 0
-10 -269 0
-1 -10 0
-207 -329 0
-8 -329 0
-89 -329 0
-269 -329 0
-1 -329 0
-8 -207 0
-89 -207 0
-207 -269 0
-1 -207 0
-8 -89 0
-8 -269 0
-1 -8 0
-89 -269 0
-1 -89 0
-1 -269 0
-159 -307 0
-127 -159 0
-127 -307 0
-156 -193 0
-177 -193 0
-71 -193 0
-193 -231 0
-69 -193 0
-163 -193 0
-68 -193 0
-122 -193 0
-156 -177 0
-71 -156 0
-156 -231 0
-69 -156 0
-156 -163 0
-68 -156 0
-122 -156 0
-71 -177 0
-177 -231 0
-69 -177 0
-163 -177 0
-68 -177 0
-122 -177 0
-71 -231 0
-69 -71 0
-71 -163 0
-68 -71 0
-71 -122 0
-69 -231 0
-163 -231 0
-68 -231 0
-122 -231 0
-69 -163 0
-68 -69 0
-69 -122 0
-68 -163 0
-122 -163 0
-68 -122 0
-48 -219 0
-47 -48 0
-48 -150 0
-46 -48 0
-48 -174 0
-47 -219 0
-150 -219 0
-46 -219 0
-174 -219 0
-47 -150 0
-46 -47 0
-47 -174 0
-46 -150 0
-150 -174 0
-46 -174 0
-181 -198 0
-198 -298 0
-38 -198 0
-198 -221 0
-198 -315 0
-126 -198 0
-36 -198 0
-119 -198 0
-181 -298 0
-38 -181 0
-181 -221 0
-181 -315 0
-126 -181 0
-36 -181 0
-119 -181 0
-38 -298 0
-221 -298 0
-298 -315 0
-126 -298 0
-36 -298 0
-119 -298 0
-38 -221 0
-38 -315 0
-38 -126 0
-36 -38 0
-38 -119 0
-221 -315 0
-126 -221 0
-36 -221 0
-119 -221 0
-126 -315 0
-36 -315 0
-119 -315 0
-36 -126 0
-119 -126 0
-36 -119 0
-29 -95 0
-27 -29 0
-29 -214 0
-29 -151 0
-26 -29 0
-27 -95 0
-95 -214 0
-95 -151 0
-26 -95 0
-27 -214 0
-27 -151 0
-26 -27 0
-151 -214 0
-26 -214 0
-26 -151 0
-172 -225 0
-172 -201 0
-201 -225 0
-125 -175 0
-145 -175 0
-125 -145 0
-165 -187 0
-187 -302 0
-165 -302 0
-192 -208 0
-142 -192 0
-192 -226 0
-192 -230 0
-192 -236 0
-117 -192 0
-114 -192 0
-67 -192 0
-142 -208 0
-208 -226 0
-208 -230 0
-208 -236 0
-117 -208 0
-114 -208 0
-67 -208 0
-142 -226 0
-142 -230 0
-142 -236 0
-117 -142 0
-114 -142 0
-67 -142 0
-226 -230 0
-226 -236 0
-117 -226 0
-114 -226 0
-67 -226 0
-230 -236 0
-117 -230 0
-114 -230 0
-67 -230 0
-117 -236 0
-114 -236 0
-67 -236 0
-114 -117 0
-67 -117 0
-67 -114 0
-140 -160 0
-140 -205 0
-45 -140 0
-160 -205 0
-45 -160 0
-45 -205 0
-153 -197 0
-138 -197 0
-130 -197 0
-116 -197 0
-111 -197 0
-138 -153 0
-130 -153 0
-116 -153 0
-111 -153 0
-130 -138 0
-116 -138 0
-111 -138 0
-116 -130 0
-111 -130 0
-111 -116 0
-91 -146 0
-91 -135 0
-91 -227 0
-91 -234 0
-91 -170 0
-91 -148 0
-91 -109 0
-25 -91 0
-135 -146 0
-146 -227 0
-146 -234 0
-146 -170 0
-146 -148 0
-109 -146 0
-25 -146 0
-135 -227 0
-135 -234 0
-135 -170 0
-135 -148 0
-109 -135 0
-25 -135 0
-227 -234 0
-170 -227 0
-148 -227 0
-109 -227 0
-25 -227 0
-170 -234 0
-148 -234 0
-109 -234 0
-25 -234 0
-148 -170 0
-109 -170 0
-25 -170 0
-109 -148 0
-25 -148 0
-25 -109 0
-121 -173 0
-173 -210 0
-173 -238 0
-121 -210 0
-121 -238 0
-210 -238 0
-305 -309 0
-305 -331 0
-241 -305 0
-276 -305 0
-305 -320 0
-305 -326 0
-305 -327 0
-108 -305 0
-309 -331 0
-241 -309 0
-276 -309 0
-309 -320 0
-309 -326 0
-309 -327 0
-108 -309 0
-241 -331 0
-276 -331 0
-320 -331 0
-326 -331 0
-327 -331 0
-108 -331 0
-241 -276 0
-241 -320 0
-241 -326 0
-241 -327 0
-108 -241 0
-276 -320 0
-276 -326 0
-276 -327 0
-108 -276 0
-320 -326 0
-320 -327 0
-108 -320 0
-326 -327 0
-108 -326 0
-108 -327 0
-132 -206 0
-72 -132 0
-132 -243 0
-132 -190 0
-132 -185 0
-66 -132 0
-65 -132 0
-106 -132 0
-72 -206 0
-206 -243 0
-190 -206 0
-185 -206 0
-66 -206 0
-65 -206 0
-106 -206 0
-72 -243 0
-72 -190 0
-72 -185 0
-66 -72 0
-65 -72 0
-72 -106 0
-190 -243 0
-185 -243 0
-66 -243 0
-65 -243 0
-106 -243 0
-185 -190 0
-66 -190 0
-65 -190 0
-106 -190 0
-66 -185 0
-65 -185 0
-106 -185 0
-65 -66 0
-66 -106 0
-65 -106 0
-223 -247 0
-35 -223 0
-35 -247 0
-133 -216 0
-28 -133 0
-133 -184 0
-133 -200 0
-133 -195 0
-24 -133 0
-23 -133 0
-133 -136 0
-28 -216 0
-184 -216 0
-200 -216 0
-195 -216 0
-24 -216 0
-23 -216 0
-136 -216 0
-28 -184 0
-28 -200 0
-28 -195 0
-24 -28 0
-23 -28 0
-28 -136 0
-184 -200 0
-184 -195 0
-24 -184 0
-23 -184 0
-136 -184 0
-195 -200 0
-24 -200 0
-23 -200 0
-136 -200 0
-24 -195 0
-23 -195 0
-136 -195 0
-23 -24 0
-24 -136 0
-23 -136 0
-204 -323 0
-113 -202 0
-10 -202 0
-202 -245 0
-202 -218 0
-202 -329 0
-10 -113 0
-113 -245 0
-113 -218 0
-113 -329 0
-10 -245 0
-10 -218 0
-10 -329 0
-218 -245 0
-245 -329 0
-218 -329 0
-97 -102 0
-82 -102 0
-102 -248 0
-102 -196 0
-102 -152 0
-82 -97 0
-97 -248 0
-97 -196 0
-97 -152 0
-82 -248 0
-82 -196 0
-82 -152 0
-196 -248 0
-152 -248 0
-152 -196 0
-101 -105 0
-96 -105 0
-84 -105 0
-80 -105 0
-105 -249 0
-61 -105 0
-60 -105 0
-105 -273 0
-96 -101 0
-84 -101 0
-80 -101 0
-101 -249 0
-61 -101 0
-60 -101 0
-101 -273 0
-84 -96 0
-80 -96 0
-96 -249 0
-61 -96 0
-60 -96 0
-96 -273 0
-80 -84 0
-84 -249 0
-61 -84 0
-60 -84 0
-84 -273 0
-80 -249 0
-61 -80 0
-60 -80 0
-80 -273 0
-61 -249 0
-60 -249 0
-249 -273 0
-60 -61 0
-61 -273 0
-60 -273 0
-229 -235 0
-229 -242 0
-112 -229 0
-79 -229 0
-229 -250 0
-43 -229 0
-42 -229 0
-229 -274 0
-235 -242 0
-112 -235 0
-79 -235 0
-235 -250 0
-43 -235 0
-42 -235 0
-235 -274 0
-112 -242 0
-79 -242 0
-242 -250 0
-43 -242 0
-42 -242 0
-242 -274 0
-79 -112 0
-112 -250 0
-43 -112 0
-42 -112 0
-112 -274 0
-79 -250 0
-43 -79 0
-42 -79 0
-79 -274 0
-43 -250 0
-42 -250 0
-250 -274 0
-42 -43 0
-43 -274 0
-42 -274 0
-104 -158 0
-104 -154 0
-33 -104 0
-32 -104 0
-104 -275 0
-154 -158 0
-33 -158 0
-32 -158 0
-158 -275 0
-33 -154 0
-32 -154 0
-154 -275 0
-32 -33 0
-33 -275 0
-32 -275 0
-99 -128 0
-110 -128 0
-77 -128 0
-19 -128 0
-18 -128 0
-99 -110 0
-77 -99 0
-19 -99 0
-18 -99 0
-77 -110 0
-19 -110 0
-18 -110 0
-19 -77 0
-18 -77 0
-18 -19 0
-167 -178 0
-75 -167 0
-167 -251 0
-75 -178 0
-178 -251 0
-75 -251 0
-103 -157 0
-83 -103 0
-103 -217 0
-83 -157 0
-157 -217 0
-83 -217 0
-222 -257 0
-139 -222 0
-139 -257 0
-94 -334 0
-90 -94 0
-94 -215 0
-94 -258 0
-94 -228 0
-94 -335 0
-94 -336 0
-94 -149 0
-90 -334 0
-215 -334 0
-258 -334 0
-228 -334 0
-334 -335 0
-334 -336 0
-149 -334 0
-90 -215 0
-90 -258 0
-90 -228 0
-90 -335 0
-90 -336 0
-90 -149 0
-215 -258 0
-215 -228 0
-215 -335 0
-215 -336 0
-149 -215 0
-228 -258 0
-258 -335 0
-258 -336 0
-149 -258 0
-228 -335 0
-228 -336 0
-149 -228 0
-335 -336 0
-149 -335 0
-149 -336 0
-64 -92 0
-92 -212 0
-92 -253 0
-92 -259 0
-92 -261 0
-59 -92 0
-58 -92 0
-92 -278 0
-64 -212 0
-64 -253 0
-64 -259 0
-64 -261 0
-59 -64 0
-58 -64 0
-64 -278 0
-212 -253 0
-212 -259 0
-212 -261 0
-59 -212 0
-58 -212 0
-212 -278 0
-253 -259 0
-253 -261 0
-59 -253 0
-58 -253 0
-253 -278 0
-259 -261 0
-59 -259 0
-58 -259 0
-259 -278 0
-59 -261 0
-58 -261 0
-261 -278 0
-58 -59 0
-59 -278 0
-58 -278 0
-162 -189 0
-189 -255 0
-189 -262 0
-41 -189 0
-189 -279 0
-162 -255 0
-162 -262 0
-41 -162 0
-162 -279 0
-255 -262 0
-41 -255 0
-255 -279 0
-41 -262 0
-262 -279 0
-41 -279 0
-34 -176 0
-31 -176 0
-30 -176 0
-31 -34 0
-30 -34 0
-30 -31 0
-22 -246 0
-123 -246 0
-246 -256 0
-246 -260 0
-246 -263 0
-17 -246 0
-16 -246 0
-246 -281 0
-22 -123 0
-22 -256 0
-22 -260 0
-22 -263 0
-17 -22 0
-16 -22 0
-22 -281 0
-123 -256 0
-123 -260 0
-123 -263 0
-17 -123 0
-16 -123 0
-123 -281 0
-256 -260 0
-256 -263 0
-17 -256 0
-16 -256 0
-256 -281 0
-260 -263 0
-17 -260 0
-16 -260 0
-260 -281 0
-17 -263 0
-16 -263 0
-263 -281 0
-16 -17 0
-17 -281 0
-16 -281 0
-161 -264 0
-264 -328 0
-161 -328 0
-134 -171 0
-134 -287 0
-171 -287 0
-63 -88 0
-63 -85 0
-63 -265 0
-63 -268 0
-62 -63 0
-63 -282 0
-63 -288 0
-63 -291 0
-85 -88 0
-88 -265 0
-88 -268 0
-62 -88 0
-88 -282 0
-88 -288 0
-88 -291 0
-85 -265 0
-85 -268 0
-62 -85 0
-85 -282 0
-85 -288 0
-85 -291 0
-265 -268 0
-62 -265 0
-265 -282 0
-265 -288 0
-265 -291 0
-62 -268 0
-268 -282 0
-268 -288 0
-268 -291 0
-62 -282 0
-62 -288 0
-62 -291 0
-282 -288 0
-282 -291 0
-288 -291 0
-44 -120 0
-44 -211 0
-44 -239 0
-44 -284 0
-44 -289 0
-120 -211 0
-120 -239 0
-120 -284 0
-120 -289 0
-211 -239 0
-211 -284 0
-211 -289 0
-239 -284 0
-239 -289 0
-284 -289 0
-21 -118 0
-21 -115 0
-21 -267 0
-21 -270 0
-20 -21 0
-21 -286 0
-21 -290 0
-21 -292 0
-115 -118 0
-118 -267 0
-118 -270 0
-20 -118 0
-118 -286 0
-118 -290 0
-118 -292 0
-115 -267 0
-115 -270 0
-20 -115 0
-115 -286 0
-115 -290 0
-115 -292 0
-267 -270 0
-20 -267 0
-267 -286 0
-267 -290 0
-267 -292 0
-20 -270 0
-270 -286 0
-270 -290 0
-270 -292 0
-20 -286 0
-20 -290 0
-20 -292 0
-286 -290 0
-286 -292 0
-290 -292 0
-87 -147 0
-87 -271 0
-13 -87 0
-147 -271 0
-13 -147 0
-13 -271 0
-9 -131 0
-9 -207 0
-9 -237 0
-9 -244 0
-8 -9 0
-131 -207 0
-131 -237 0
-131 -244 0
-8 -131 0
-207 -237 0
-207 -244 0
-8 -207 0
-237 -244 0
-8 -237 0
-8 -244 0
-129 -137 0
-124 -137 0
-137 -144 0
-124 -129 0
-129 -144 0
-124 -144 0
-57 -293 0
-56 -293 0
-186 -293 0
-164 -293 0
-293 -303 0
-272 -293 0
-293 -318 0
-52 -293 0
-56 -57 0
-57 -186 0
-57 -164 0
-57 -303 0
-57 -272 0
-57 -318 0
-52 -57 0
-56 -186 0
-56 -164 0
-56 -303 0
-56 -272 0
-56 -318 0
-52 -56 0
-164 -186 0
-186 -303 0
-186 -272 0
-186 -318 0
-52 -186 0
-164 -303 0
-164 -272 0
-164 -318 0
-52 -164 0
-272 -303 0
-303 -318 0
-52 -303 0
-272 -318 0
-52 -272 0
-52 -318 0
-40 -294 0
-39 -294 0
-191 -294 0
-209 -294 0
-141 -294 0
-39 -40 0
-40 -191 0
-40 -209 0
-40 -141 0
-39 -191 0
-39 -209 0
-39 -141 0
-191 -209 0
-141 -191 0
-141 -209 0
-300 -301 0
-300 -304 0
-301 -304 0
-11 -12 0
-12 -233 0
-12 -169 0
-11 -233 0
-11 -169 0
-169 -233 0
-7 -107 0
-86 -107 0
-81 -107 0
-107 -317 0
-3 -107 0
-7 -86 0
-7 -81 0
-7 -317 0
-3 -7 0
-81 -86 0
-86 -317 0
-3 -86 0
-81 -317 0
-3 -81 0
-3 -317 0
-306 -310 0
-306 -332 0
-240 -306 0
-277 -306 0
-306 -321 0
-310 -332 0
-240 -310 0
-277 -310 0
-310 -321 0
-240 -332 0
-277 -332 0
-321 -332 0
-240 -277 0
-240 -321 0
-277 -321 0
-100 -296 0
-74 -100 0
-78 -100 0
-100 -311 0
-73 -100 0
-74 -296 0
-78 -296 0
-296 -311 0
-73 -296 0
-74 -78 0
-74 -311 0
-73 -74 0
-78 -311 0
-73 -78 0
-73 -311 0
-168 -179 0
-55 -168 0
-76 -168 0
-168 -252 0
-54 -168 0
-168 -319 0
-51 -168 0
-168 -322 0
-55 -179 0
-76 -179 0
-179 -252 0
-54 -179 0
-179 -319 0
-51 -179 0
-179 -322 0
-55 -76 0
-55 -252 0
-54 -55 0
-55 -319 0
-51 -55 0
-55 -322 0
-76 -252 0
-54 -76 0
-76 -319 0
-51 -76 0
-76 -322 0
-54 -252 0
-252 -319 0
-51 -252 0
-252 -322 0
-54 -319 0
-51 -54 0
-54 -322 0
-51 -319 0
-319 -322 0
-51 -322 0
-182 -295 0
-15 -295 0
-295 -308 0
-224 -295 0
-14 -295 0
-15 -182 0
-182 -308 0
-182 -224 0
-14 -182 0
-15 -308 0
-15 -224 0
-14 -15 0
-224 -308 0
-14 -308 0
-14 -224 0
-98 -183 0
-6 -93 0
-93 -254 0
-5 -93 0
-93 -203 0
-93 -324 0
-6 -254 0
-5 -6 0
-6 -203 0
-6 -324 0
-5 -254 0
-203 -254 0
-254 -324 0
-5 -203 0
-5 -324 0
-203 -324 0
-280 -330 0
-285 -330 0
-280 -285 0
-313 -333 0
-166 -188 0
-143 -188 0
-53 -188 0
-188 -312 0
-188 -314 0
-50 -188 0
-188 -325 0
-49 -188 0
-143 -166 0
-53 -166 0
-166 -312 0
-166 -314 0
-50 -166 0
-166 -325 0
-49 -166 0
-53 -143 0
-143 -312 0
-143 -314 0
-50 -143 0
-143 -325 0
-49 -143 0
-53 -312 0
-53 -314 0
-50 -53 0
-53 -325 0
-49 -53 0
-312 -314 0
-50 -312 0
-312 -325 0
-49 -312 0
-50 -314 0
-314 -325 0
-49 -314 0
-50 -325 0
-49 -50 0
-49 -325 0
-155 -194 0
-70 -194 0
-194 -232 0
-70 -155 0
-155 -232 0
-70 -232 0
-180 -199 0
-199 -299 0
-37 -199 0
-199 -220 0
-199 -316 0
-180 -299 0
-37 -180 0
-180 -220 0
-180 -316 0
-37 -299 0
-220 -299 0
-299 -316 0
-37 -220 0
-37 -316 0
-220 -316 0
-213 -297 0
-89 -213 0
-4 -213 0
-213 -266 0
-213 -269 0
-2 -213 0
-213 -283 0
-1 -213 0
-89 -297 0
-4 -297 0
-266 -297 0
-269 -297 0
-2 -297 0
-283 -297 0
-1 -297 0
-4 -89 0
-89 -266 0
-89 -269 0
-2 -89 0
-89 -283 0
-1 -89 0
-4 -266 0
-4 -269 0
-2 -4 0
-4 -283 0
-1 -4 0
-266 -269 0
-2 -266 0
-266 -283 0
-1 -266 0
-2 -269 0
-269 -283 0
-1 -269 0
-2 -283 0
-1 -2 0
-1 -283 0
